p cnf 50 840
1 2 3 4 5 6 7 8 9 10 0
11 12 13 14 15 16 17 18 19 20 0
21 22 23 24 25 26 27 28 29 30 0
31 32 33 34 35 36 37 38 39 40 0
41 42 43 44 45 46 47 48 49 50 0
1 -2 -3 -4 -5 -6 -7 -8 -9 -10 0
-1 2 -3 -4 -5 -6 -7 -8 -9 -10 0
-1 -2 3 -4 -5 -6 -7 -8 -9 -10 0
-1 -2 -3 4 -5 -6 -7 -8 -9 -10 0
-1 -2 -3 -4 5 -6 -7 -8 -9 -10 0
-1 -2 -3 -4 -5 6 -7 -8 -9 -10 0
-1 -2 -3 -4 -5 -6 7 -8 -9 -10 0
-1 -2 -3 -4 -5 -6 -7 8 -9 -10 0
-1 -2 -3 -4 -5 -6 -7 -8 9 -10 0
-1 -2 -3 -4 -5 -6 -7 -8 -9 10 0
11 -12 -13 -14 -15 -16 -17 -18 -19 -20 0
-11 12 -13 -14 -15 -16 -17 -18 -19 -20 0
-11 -12 13 -14 -15 -16 -17 -18 -19 -20 0
-11 -12 -13 14 -15 -16 -17 -18 -19 -20 0
-11 -12 -13 -14 15 -16 -17 -18 -19 -20 0
-11 -12 -13 -14 -15 16 -17 -18 -19 -20 0
-11 -12 -13 -14 -15 -16 17 -18 -19 -20 0
-11 -12 -13 -14 -15 -16 -17 18 -19 -20 0
-11 -12 -13 -14 -15 -16 -17 -18 19 -20 0
-11 -12 -13 -14 -15 -16 -17 -18 -19 20 0
21 -22 -23 -24 -25 -26 -27 -28 -29 -30 0
-21 22 -23 -24 -25 -26 -27 -28 -29 -30 0
-21 -22 23 -24 -25 -26 -27 -28 -29 -30 0
-21 -22 -23 24 -25 -26 -27 -28 -29 -30 0
-21 -22 -23 -24 25 -26 -27 -28 -29 -30 0
-21 -22 -23 -24 -25 26 -27 -28 -29 -30 0
-21 -22 -23 -24 -25 -26 27 -28 -29 -30 0
-21 -22 -23 -24 -25 -26 -27 28 -29 -30 0
-21 -22 -23 -24 -25 -26 -27 -28 29 -30 0
-21 -22 -23 -24 -25 -26 -27 -28 -29 30 0
31 -32 -33 -34 -35 -36 -37 -38 -39 -40 0
-31 32 -33 -34 -35 -36 -37 -38 -39 -40 0
-31 -32 33 -34 -35 -36 -37 -38 -39 -40 0
-31 -32 -33 34 -35 -36 -37 -38 -39 -40 0
-31 -32 -33 -34 35 -36 -37 -38 -39 -40 0
-31 -32 -33 -34 -35 36 -37 -38 -39 -40 0
-31 -32 -33 -34 -35 -36 37 -38 -39 -40 0
-31 -32 -33 -34 -35 -36 -37 38 -39 -40 0
-31 -32 -33 -34 -35 -36 -37 -38 39 -40 0
-31 -32 -33 -34 -35 -36 -37 -38 -39 40 0
41 -42 -43 -44 -45 -46 -47 -48 -49 -50 0
-41 42 -43 -44 -45 -46 -47 -48 -49 -50 0
-41 -42 43 -44 -45 -46 -47 -48 -49 -50 0
-41 -42 -43 44 -45 -46 -47 -48 -49 -50 0
-41 -42 -43 -44 45 -46 -47 -48 -49 -50 0
-41 -42 -43 -44 -45 46 -47 -48 -49 -50 0
-41 -42 -43 -44 -45 -46 47 -48 -49 -50 0
-41 -42 -43 -44 -45 -46 -47 48 -49 -50 0
-41 -42 -43 -44 -45 -46 -47 -48 49 -50 0
-41 -42 -43 -44 -45 -46 -47 -48 -49 50 0
-2 -4 -9 -10 0
-12 -14 -19 -20 0
-21 -22 -23 -25 -29 -30 0
-40 0
-42 -44 -49 -50 0
-1 -15 0
-1 -25 0
-1 -35 0
-1 -42 0
-1 -43 0
-1 -44 0
-1 -46 0
-1 -47 0
-1 -48 0
-1 -49 0
-1 -50 0
-2 -15 0
-2 -16 0
-2 -25 0
-2 -26 0
-2 -35 0
-2 -36 0
-2 -41 0
-2 -43 0
-2 -44 0
-2 -47 0
-2 -48 0
-2 -49 0
-2 -50 0
-3 -11 0
-3 -21 0
-3 -31 0
-3 -42 0
-3 -44 0
-3 -45 0
-3 -46 0
-3 -47 0
-3 -48 0
-3 -49 0
-3 -50 0
-4 -11 0
-4 -13 0
-4 -15 0
-4 -18 0
-4 -21 0
-4 -23 0
-4 -25 0
-4 -28 0
-4 -31 0
-4 -33 0
-4 -35 0
-4 -38 0
-4 -42 0
-4 -46 0
-4 -47 0
-4 -49 0
-4 -50 0
-5 -13 0
-5 -17 0
-5 -23 0
-5 -27 0
-5 -33 0
-5 -37 0
-5 -41 0
-5 -42 0
-5 -44 0
-5 -46 0
-5 -48 0
-5 -49 0
-5 -50 0
-6 -12 0
-6 -13 0
-6 -17 0
-6 -18 0
-6 -22 0
-6 -23 0
-6 -27 0
-6 -28 0
-6 -32 0
-6 -33 0
-6 -37 0
-6 -38 0
-6 -41 0
-6 -44 0
-6 -45 0
-6 -49 0
-6 -50 0
-7 -16 0
-7 -18 0
-7 -19 0
-7 -20 0
-7 -26 0
-7 -28 0
-7 -29 0
-7 -30 0
-7 -36 0
-7 -38 0
-7 -39 0
-7 -40 0
-7 -41 0
-7 -42 0
-7 -43 0
-7 -44 0
-7 -45 0
-8 -11 0
-8 -13 0
-8 -14 0
-8 -16 0
-8 -17 0
-8 -20 0
-8 -21 0
-8 -23 0
-8 -24 0
-8 -26 0
-8 -27 0
-8 -30 0
-8 -31 0
-8 -33 0
-8 -34 0
-8 -36 0
-8 -37 0
-8 -40 0
-8 -42 0
-8 -45 0
-8 -49 0
-9 -13 0
-9 -23 0
-9 -33 0
-9 -41 0
-9 -42 0
-9 -44 0
-9 -45 0
-9 -46 0
-9 -47 0
-9 -48 0
-9 -50 0
-10 -41 0
-10 -42 0
-10 -43 0
-10 -44 0
-10 -45 0
-10 -46 0
-10 -47 0
-10 -48 0
-10 -49 0
-11 -2 0
-11 -3 0
-11 -4 0
-11 -6 0
-11 -7 0
-11 -8 0
-11 -9 0
-11 -10 0
-11 -25 0
-11 -35 0
-11 -45 0
-12 -1 0
-12 -3 0
-12 -4 0
-12 -7 0
-12 -8 0
-12 -9 0
-12 -10 0
-12 -25 0
-12 -26 0
-12 -35 0
-12 -36 0
-12 -45 0
-12 -46 0
-13 -2 0
-13 -4 0
-13 -5 0
-13 -6 0
-13 -7 0
-13 -8 0
-13 -9 0
-13 -10 0
-13 -21 0
-13 -31 0
-13 -41 0
-14 -2 0
-14 -6 0
-14 -7 0
-14 -9 0
-14 -10 0
-14 -21 0
-14 -23 0
-14 -25 0
-14 -28 0
-14 -31 0
-14 -33 0
-14 -35 0
-14 -38 0
-14 -41 0
-14 -43 0
-14 -45 0
-14 -48 0
-15 -1 0
-15 -2 0
-15 -4 0
-15 -6 0
-15 -8 0
-15 -9 0
-15 -10 0
-15 -23 0
-15 -27 0
-15 -33 0
-15 -37 0
-15 -43 0
-15 -47 0
-16 -1 0
-16 -4 0
-16 -5 0
-16 -9 0
-16 -10 0
-16 -22 0
-16 -23 0
-16 -27 0
-16 -28 0
-16 -32 0
-16 -33 0
-16 -37 0
-16 -38 0
-16 -42 0
-16 -43 0
-16 -47 0
-16 -48 0
-17 -1 0
-17 -2 0
-17 -3 0
-17 -4 0
-17 -5 0
-17 -26 0
-17 -28 0
-17 -29 0
-17 -30 0
-17 -36 0
-17 -38 0
-17 -39 0
-17 -40 0
-17 -46 0
-17 -48 0
-17 -49 0
-17 -50 0
-18 -2 0
-18 -5 0
-18 -9 0
-18 -21 0
-18 -23 0
-18 -24 0
-18 -26 0
-18 -27 0
-18 -30 0
-18 -31 0
-18 -33 0
-18 -34 0
-18 -36 0
-18 -37 0
-18 -40 0
-18 -41 0
-18 -43 0
-18 -44 0
-18 -46 0
-18 -47 0
-18 -50 0
-19 -1 0
-19 -2 0
-19 -4 0
-19 -5 0
-19 -6 0
-19 -7 0
-19 -8 0
-19 -10 0
-19 -23 0
-19 -33 0
-19 -43 0
-20 -1 0
-20 -2 0
-20 -3 0
-20 -4 0
-20 -5 0
-20 -6 0
-20 -7 0
-20 -8 0
-20 -9 0
-21 -2 0
-21 -3 0
-21 -4 0
-21 -6 0
-21 -7 0
-21 -8 0
-21 -9 0
-21 -10 0
-21 -12 0
-21 -13 0
-21 -14 0
-21 -16 0
-21 -17 0
-21 -18 0
-21 -19 0
-21 -20 0
-21 -35 0
-21 -42 0
-21 -43 0
-21 -44 0
-21 -46 0
-21 -47 0
-21 -48 0
-21 -49 0
-21 -50 0
-22 -1 0
-22 -3 0
-22 -4 0
-22 -7 0
-22 -8 0
-22 -9 0
-22 -10 0
-22 -11 0
-22 -13 0
-22 -14 0
-22 -17 0
-22 -18 0
-22 -19 0
-22 -20 0
-22 -35 0
-22 -36 0
-22 -41 0
-22 -43 0
-22 -44 0
-22 -47 0
-22 -48 0
-22 -49 0
-22 -50 0
-23 -2 0
-23 -4 0
-23 -5 0
-23 -6 0
-23 -7 0
-23 -8 0
-23 -9 0
-23 -10 0
-23 -12 0
-23 -14 0
-23 -15 0
-23 -16 0
-23 -17 0
-23 -18 0
-23 -19 0
-23 -20 0
-23 -31 0
-23 -42 0
-23 -44 0
-23 -45 0
-23 -46 0
-23 -47 0
-23 -48 0
-23 -49 0
-23 -50 0
-24 -2 0
-24 -6 0
-24 -7 0
-24 -9 0
-24 -10 0
-24 -12 0
-24 -16 0
-24 -17 0
-24 -19 0
-24 -20 0
-24 -31 0
-24 -33 0
-24 -35 0
-24 -38 0
-24 -42 0
-24 -46 0
-24 -47 0
-24 -49 0
-24 -50 0
-25 -1 0
-25 -2 0
-25 -4 0
-25 -6 0
-25 -8 0
-25 -9 0
-25 -10 0
-25 -11 0
-25 -12 0
-25 -14 0
-25 -16 0
-25 -18 0
-25 -19 0
-25 -20 0
-25 -33 0
-25 -37 0
-25 -41 0
-25 -42 0
-25 -44 0
-25 -46 0
-25 -48 0
-25 -49 0
-25 -50 0
-26 -1 0
-26 -4 0
-26 -5 0
-26 -9 0
-26 -10 0
-26 -11 0
-26 -14 0
-26 -15 0
-26 -19 0
-26 -20 0
-26 -32 0
-26 -33 0
-26 -37 0
-26 -38 0
-26 -41 0
-26 -44 0
-26 -45 0
-26 -49 0
-26 -50 0
-27 -1 0
-27 -2 0
-27 -3 0
-27 -4 0
-27 -5 0
-27 -11 0
-27 -12 0
-27 -13 0
-27 -14 0
-27 -15 0
-27 -36 0
-27 -38 0
-27 -39 0
-27 -40 0
-27 -41 0
-27 -42 0
-27 -43 0
-27 -44 0
-27 -45 0
-28 -2 0
-28 -5 0
-28 -9 0
-28 -12 0
-28 -15 0
-28 -19 0
-28 -31 0
-28 -33 0
-28 -34 0
-28 -36 0
-28 -37 0
-28 -40 0
-28 -42 0
-28 -45 0
-28 -49 0
-29 -1 0
-29 -2 0
-29 -4 0
-29 -5 0
-29 -6 0
-29 -7 0
-29 -8 0
-29 -10 0
-29 -11 0
-29 -12 0
-29 -14 0
-29 -15 0
-29 -16 0
-29 -17 0
-29 -18 0
-29 -20 0
-29 -33 0
-29 -41 0
-29 -42 0
-29 -44 0
-29 -45 0
-29 -46 0
-29 -47 0
-29 -48 0
-29 -50 0
-30 -1 0
-30 -2 0
-30 -3 0
-30 -4 0
-30 -5 0
-30 -6 0
-30 -7 0
-30 -8 0
-30 -9 0
-30 -11 0
-30 -12 0
-30 -13 0
-30 -14 0
-30 -15 0
-30 -16 0
-30 -17 0
-30 -18 0
-30 -19 0
-30 -41 0
-30 -42 0
-30 -43 0
-30 -44 0
-30 -45 0
-30 -46 0
-30 -47 0
-30 -48 0
-30 -49 0
-31 -5 0
-31 -15 0
-31 -25 0
-31 -42 0
-31 -43 0
-31 -44 0
-31 -46 0
-31 -47 0
-31 -48 0
-31 -49 0
-31 -50 0
-32 -5 0
-32 -6 0
-32 -15 0
-32 -16 0
-32 -25 0
-32 -26 0
-32 -41 0
-32 -43 0
-32 -44 0
-32 -47 0
-32 -48 0
-32 -49 0
-32 -50 0
-33 -1 0
-33 -11 0
-33 -21 0
-33 -42 0
-33 -44 0
-33 -45 0
-33 -46 0
-33 -47 0
-33 -48 0
-33 -49 0
-33 -50 0
-34 -1 0
-34 -3 0
-34 -5 0
-34 -8 0
-34 -11 0
-34 -13 0
-34 -15 0
-34 -18 0
-34 -21 0
-34 -23 0
-34 -25 0
-34 -28 0
-34 -42 0
-34 -46 0
-34 -47 0
-34 -49 0
-34 -50 0
-35 -3 0
-35 -7 0
-35 -13 0
-35 -17 0
-35 -23 0
-35 -27 0
-35 -41 0
-35 -42 0
-35 -44 0
-35 -46 0
-35 -48 0
-35 -49 0
-35 -50 0
-36 -2 0
-36 -3 0
-36 -7 0
-36 -8 0
-36 -12 0
-36 -13 0
-36 -17 0
-36 -18 0
-36 -22 0
-36 -23 0
-36 -27 0
-36 -28 0
-36 -41 0
-36 -44 0
-36 -45 0
-36 -49 0
-36 -50 0
-37 -6 0
-37 -8 0
-37 -9 0
-37 -10 0
-37 -16 0
-37 -18 0
-37 -19 0
-37 -20 0
-37 -26 0
-37 -28 0
-37 -29 0
-37 -30 0
-37 -41 0
-37 -42 0
-37 -43 0
-37 -44 0
-37 -45 0
-38 -1 0
-38 -3 0
-38 -4 0
-38 -6 0
-38 -7 0
-38 -10 0
-38 -11 0
-38 -13 0
-38 -14 0
-38 -16 0
-38 -17 0
-38 -20 0
-38 -21 0
-38 -23 0
-38 -24 0
-38 -26 0
-38 -27 0
-38 -30 0
-38 -42 0
-38 -45 0
-38 -49 0
-39 -3 0
-39 -13 0
-39 -23 0
-39 -41 0
-39 -42 0
-39 -44 0
-39 -45 0
-39 -46 0
-39 -47 0
-39 -48 0
-39 -50 0
-40 -41 0
-40 -42 0
-40 -43 0
-40 -44 0
-40 -45 0
-40 -46 0
-40 -47 0
-40 -48 0
-40 -49 0
-41 -5 0
-41 -12 0
-41 -13 0
-41 -14 0
-41 -16 0
-41 -17 0
-41 -18 0
-41 -19 0
-41 -20 0
-41 -25 0
-41 -35 0
-42 -5 0
-42 -6 0
-42 -11 0
-42 -13 0
-42 -14 0
-42 -17 0
-42 -18 0
-42 -19 0
-42 -20 0
-42 -25 0
-42 -26 0
-42 -35 0
-42 -36 0
-43 -1 0
-43 -12 0
-43 -14 0
-43 -15 0
-43 -16 0
-43 -17 0
-43 -18 0
-43 -19 0
-43 -20 0
-43 -21 0
-43 -31 0
-44 -1 0
-44 -3 0
-44 -5 0
-44 -8 0
-44 -12 0
-44 -16 0
-44 -17 0
-44 -19 0
-44 -20 0
-44 -21 0
-44 -23 0
-44 -25 0
-44 -28 0
-44 -31 0
-44 -33 0
-44 -35 0
-44 -38 0
-45 -3 0
-45 -7 0
-45 -11 0
-45 -12 0
-45 -14 0
-45 -16 0
-45 -18 0
-45 -19 0
-45 -20 0
-45 -23 0
-45 -27 0
-45 -33 0
-45 -37 0
-46 -2 0
-46 -3 0
-46 -7 0
-46 -8 0
-46 -11 0
-46 -14 0
-46 -15 0
-46 -19 0
-46 -20 0
-46 -22 0
-46 -23 0
-46 -27 0
-46 -28 0
-46 -32 0
-46 -33 0
-46 -37 0
-46 -38 0
-47 -6 0
-47 -8 0
-47 -9 0
-47 -10 0
-47 -11 0
-47 -12 0
-47 -13 0
-47 -14 0
-47 -15 0
-47 -26 0
-47 -28 0
-47 -29 0
-47 -30 0
-47 -36 0
-47 -38 0
-47 -39 0
-47 -40 0
-48 -1 0
-48 -3 0
-48 -4 0
-48 -6 0
-48 -7 0
-48 -10 0
-48 -12 0
-48 -15 0
-48 -19 0
-48 -21 0
-48 -23 0
-48 -24 0
-48 -26 0
-48 -27 0
-48 -30 0
-48 -31 0
-48 -33 0
-48 -34 0
-48 -36 0
-48 -37 0
-48 -40 0
-49 -3 0
-49 -11 0
-49 -12 0
-49 -14 0
-49 -15 0
-49 -16 0
-49 -17 0
-49 -18 0
-49 -20 0
-49 -23 0
-49 -33 0
-50 -11 0
-50 -12 0
-50 -13 0
-50 -14 0
-50 -15 0
-50 -16 0
-50 -17 0
-50 -18 0
-50 -19 0
